security_analysis/Diff/Result/SWAN64-Diff-3.txt
in init()
---------------------------1-------------------------------
L_in
00001000
00000000
00000000
00000100
S1_in
00001000
00000000
00000000
00001000
S1_out		
00001000
00001000
00000000
00000000
After_Shift_row		 R_in
00001000 	 00000100
00000100 	 00001000
00000000 	 00001100
00000000 	 00001100
R_out
00000000
00000000
00000000
00000000
S2_in
00000000
00000000
00000000
00000000
S2_out		
00000000
00000000
00000000
00000000
After_Shift_row		 L_in
00000000 		 00001000
00000000 		 00000000
00000000 		 00000000
00000000 		 00000100
L_out
00001000
00000000
00000000
00000100
---------------------------2-------------------------------
L_in
00001000
00000000
00000000
00000100
S1_in
00001000
00000000
00000000
00001000
S1_out		
00000000
00000000
00000000
00001000
After_Shift_row		 R_in
00000000 	 00000000
00000000 	 00000000
00000000 	 00000000
00010000 	 00000000
R_out
00010000
00010000
00010000
00000000
S2_in
00010000
00001000
00000100
00000000
S2_out		
00011100
00001000
00010000
00011100
After_Shift_row		 L_in
00011100 		 00001000
00000100 		 00000000
00000100 		 00000000
00111000 		 00000100
L_out
00110000
00100000
00100000
00011000
---------------------------3-------------------------------
L_in
00110000
00100000
00100000
00011000
S1_in
00110000
00010000
00001000
00110000
S1_out		
00001000
00010000
00100000
00001000
After_Shift_row		 R_in
00001000 	 00010000
00001000 	 00010000
00001000 	 00010000
00010000 	 00000000
R_out
00000000
00000000
00000000
00001000
S2_in
00000000
00000000
00000000
00010000
S2_out		
00000000
00010000
00000000
00010000
After_Shift_row		 L_in
00000000 		 00110000
00001000 		 00100000
00000000 		 00100000
00100000 		 00011000
L_out
00011000
00000000
00001000
00010000