security_analysis/Diff/Result/SWAN64-Diff-3.sol
# Objective value = 9
S10_r1 0
S11_r1 0
S12_r1 0
S13_r1 0
S14_r1 1
S15_r1 0
S16_r1 0
S17_r1 0
S20_r1 0
S21_r1 0
S22_r1 0
S23_r1 0
S24_r1 0
S25_r1 0
S26_r1 0
S27_r1 0
S10_r2 0
S11_r2 0
S12_r2 0
S13_r2 0
S14_r2 1
S15_r2 0
S16_r2 0
S17_r2 0
S20_r2 0
S21_r2 0
S22_r2 0
S23_r2 1
S24_r2 1
S25_r2 1
S26_r2 0
S27_r2 0
S10_r3 0
S11_r3 0
S12_r3 1
S13_r3 1
S14_r3 1
S15_r3 0
S16_r3 0
S17_r3 0
S20_r3 0
S21_r3 0
S22_r3 0
S23_r3 1
S24_r3 0
S25_r3 0
S26_r3 0
S27_r3 0
L_0_0_r1 0
L_1_7_r1 0
L_2_6_r1 0
L_3_1_r1 0
S_out1_0_0_r1 0
S_out1_1_0_r1 0
S_out1_2_0_r1 0
S_out1_3_0_r1 0
L_0_1_r1 0
L_1_0_r1 0
L_2_7_r1 0
L_3_2_r1 0
S_out1_0_1_r1 0
S_out1_1_1_r1 0
S_out1_2_1_r1 0
S_out1_3_1_r1 0
L_0_2_r1 0
L_1_1_r1 0
L_2_0_r1 0
L_3_3_r1 0
S_out1_0_2_r1 0
S_out1_1_2_r1 0
S_out1_2_2_r1 0
S_out1_3_2_r1 0
L_0_3_r1 0
L_1_2_r1 0
L_2_1_r1 0
L_3_4_r1 0
S_out1_0_3_r1 0
S_out1_1_3_r1 0
S_out1_2_3_r1 0
S_out1_3_3_r1 0
L_0_4_r1 1
L_1_3_r1 0
L_2_2_r1 0
L_3_5_r1 1
S_out1_0_4_r1 1
S_out1_1_4_r1 1
S_out1_2_4_r1 0
S_out1_3_4_r1 0
L_0_5_r1 0
L_1_4_r1 0
L_2_3_r1 0
L_3_6_r1 0
S_out1_0_5_r1 0
S_out1_1_5_r1 0
S_out1_2_5_r1 0
S_out1_3_5_r1 0
L_0_6_r1 0
L_1_5_r1 0
L_2_4_r1 0
L_3_7_r1 0
S_out1_0_6_r1 0
S_out1_1_6_r1 0
S_out1_2_6_r1 0
S_out1_3_6_r1 0
L_0_7_r1 0
L_1_6_r1 0
L_2_5_r1 0
L_3_0_r1 0
S_out1_0_7_r1 0
S_out1_1_7_r1 0
S_out1_2_7_r1 0
S_out1_3_7_r1 0
R_0_0_r1 0
R_0_0_r2 0
R_0_1_r1 0
R_0_1_r2 0
R_0_2_r1 0
R_0_2_r2 0
R_0_3_r1 0
R_0_3_r2 0
R_0_4_r1 0
R_0_4_r2 0
R_0_5_r1 1
R_0_5_r2 0
R_0_6_r1 0
R_0_6_r2 0
R_0_7_r1 0
R_0_7_r2 0
R_1_0_r1 0
R_1_0_r2 0
R_1_1_r1 0
R_1_1_r2 0
R_1_2_r1 0
R_1_2_r2 0
R_1_3_r1 0
R_1_3_r2 0
R_1_4_r1 1
R_1_4_r2 0
R_1_5_r1 0
R_1_5_r2 0
R_1_6_r1 0
R_1_6_r2 0
R_1_7_r1 0
R_1_7_r2 0
R_2_0_r1 0
R_2_0_r2 0
R_2_1_r1 0
R_2_1_r2 0
R_2_2_r1 0
R_2_2_r2 0
R_2_3_r1 0
R_2_3_r2 0
R_2_4_r1 1
R_2_4_r2 0
R_2_5_r1 1
R_2_5_r2 0
R_2_6_r1 0
R_2_6_r2 0
R_2_7_r1 0
R_2_7_r2 0
R_3_0_r1 0
R_3_0_r2 0
R_3_1_r1 0
R_3_1_r2 0
R_3_2_r1 0
R_3_2_r2 0
R_3_3_r1 0
R_3_3_r2 0
R_3_4_r1 1
R_3_4_r2 0
R_3_5_r1 1
R_3_5_r2 0
R_3_6_r1 0
R_3_6_r2 0
R_3_7_r1 0
R_3_7_r2 0
S_out2_0_0_r1 0
S_out2_1_0_r1 0
S_out2_2_0_r1 0
S_out2_3_0_r1 0
S_out2_0_1_r1 0
S_out2_1_1_r1 0
S_out2_2_1_r1 0
S_out2_3_1_r1 0
S_out2_0_2_r1 0
S_out2_1_2_r1 0
S_out2_2_2_r1 0
S_out2_3_2_r1 0
S_out2_0_3_r1 0
S_out2_1_3_r1 0
S_out2_2_3_r1 0
S_out2_3_3_r1 0
S_out2_0_4_r1 0
S_out2_1_4_r1 0
S_out2_2_4_r1 0
S_out2_3_4_r1 0
S_out2_0_5_r1 0
S_out2_1_5_r1 0
S_out2_2_5_r1 0
S_out2_3_5_r1 0
S_out2_0_6_r1 0
S_out2_1_6_r1 0
S_out2_2_6_r1 0
S_out2_3_6_r1 0
S_out2_0_7_r1 0
S_out2_1_7_r1 0
S_out2_2_7_r1 0
S_out2_3_7_r1 0
L_0_0_r2 0
L_0_1_r2 0
L_0_2_r2 0
L_0_3_r2 0
L_0_4_r2 1
L_0_5_r2 0
L_0_6_r2 0
L_0_7_r2 0
L_1_0_r2 0
L_1_1_r2 0
L_1_2_r2 0
L_1_3_r2 0
L_1_4_r2 0
L_1_5_r2 0
L_1_6_r2 0
L_1_7_r2 0
L_2_0_r2 0
L_2_1_r2 0
L_2_2_r2 0
L_2_3_r2 0
L_2_4_r2 0
L_2_5_r2 0
L_2_6_r2 0
L_2_7_r2 0
L_3_0_r2 0
L_3_1_r2 0
L_3_2_r2 0
L_3_3_r2 0
L_3_4_r2 0
L_3_5_r2 1
L_3_6_r2 0
L_3_7_r2 0
S_out1_0_0_r2 0
S_out1_1_0_r2 0
S_out1_2_0_r2 0
S_out1_3_0_r2 0
S_out1_0_1_r2 0
S_out1_1_1_r2 0
S_out1_2_1_r2 0
S_out1_3_1_r2 0
S_out1_0_2_r2 0
S_out1_1_2_r2 0
S_out1_2_2_r2 0
S_out1_3_2_r2 0
S_out1_0_3_r2 0
S_out1_1_3_r2 0
S_out1_2_3_r2 0
S_out1_3_3_r2 0
S_out1_0_4_r2 0
S_out1_1_4_r2 0
S_out1_2_4_r2 0
S_out1_3_4_r2 1
S_out1_0_5_r2 0
S_out1_1_5_r2 0
S_out1_2_5_r2 0
S_out1_3_5_r2 0
S_out1_0_6_r2 0
S_out1_1_6_r2 0
S_out1_2_6_r2 0
S_out1_3_6_r2 0
S_out1_0_7_r2 0
S_out1_1_7_r2 0
S_out1_2_7_r2 0
S_out1_3_7_r2 0
R_0_0_r3 0
R_0_1_r3 0
R_0_2_r3 0
R_0_3_r3 1
R_0_4_r3 0
R_0_5_r3 0
R_0_6_r3 0
R_0_7_r3 0
R_1_0_r3 0
R_1_1_r3 0
R_1_2_r3 0
R_1_3_r3 1
R_1_4_r3 0
R_1_5_r3 0
R_1_6_r3 0
R_1_7_r3 0
R_2_0_r3 0
R_2_1_r3 0
R_2_2_r3 0
R_2_3_r3 1
R_2_4_r3 0
R_2_5_r3 0
R_2_6_r3 0
R_2_7_r3 0
R_3_0_r3 0
R_3_1_r3 0
R_3_2_r3 0
R_3_3_r3 0
R_3_4_r3 0
R_3_5_r3 0
R_3_6_r3 0
R_3_7_r3 0
S_out2_0_0_r2 0
S_out2_1_0_r2 0
S_out2_2_0_r2 0
S_out2_3_0_r2 0
S_out2_0_1_r2 0
S_out2_1_1_r2 0
S_out2_2_1_r2 0
S_out2_3_1_r2 0
S_out2_0_2_r2 0
S_out2_1_2_r2 0
S_out2_2_2_r2 0
S_out2_3_2_r2 0
S_out2_0_3_r2 1
S_out2_1_3_r2 0
S_out2_2_3_r2 1
S_out2_3_3_r2 1
S_out2_0_4_r2 1
S_out2_1_4_r2 1
S_out2_2_4_r2 0
S_out2_3_4_r2 1
S_out2_0_5_r2 1
S_out2_1_5_r2 0
S_out2_2_5_r2 0
S_out2_3_5_r2 1
S_out2_0_6_r2 0
S_out2_1_6_r2 0
S_out2_2_6_r2 0
S_out2_3_6_r2 0
S_out2_0_7_r2 0
S_out2_1_7_r2 0
S_out2_2_7_r2 0
S_out2_3_7_r2 0
L_0_0_r3 0
L_0_1_r3 0
L_0_2_r3 1
L_0_3_r3 1
L_0_4_r3 0
L_0_5_r3 0
L_0_6_r3 0
L_0_7_r3 0
L_1_0_r3 0
L_1_1_r3 0
L_1_2_r3 1
L_1_3_r3 0
L_1_4_r3 0
L_1_5_r3 0
L_1_6_r3 0
L_1_7_r3 0
L_2_0_r3 0
L_2_1_r3 0
L_2_2_r3 1
L_2_3_r3 0
L_2_4_r3 0
L_2_5_r3 0
L_2_6_r3 0
L_2_7_r3 0
L_3_0_r3 0
L_3_1_r3 0
L_3_2_r3 0
L_3_3_r3 1
L_3_4_r3 1
L_3_5_r3 0
L_3_6_r3 0
L_3_7_r3 0
S_out1_0_0_r3 0
S_out1_1_0_r3 0
S_out1_2_0_r3 0
S_out1_3_0_r3 0
S_out1_0_1_r3 0
S_out1_1_1_r3 0
S_out1_2_1_r3 0
S_out1_3_1_r3 0
S_out1_0_2_r3 0
S_out1_1_2_r3 0
S_out1_2_2_r3 1
S_out1_3_2_r3 0
S_out1_0_3_r3 0
S_out1_1_3_r3 1
S_out1_2_3_r3 0
S_out1_3_3_r3 0
S_out1_0_4_r3 1
S_out1_1_4_r3 0
S_out1_2_4_r3 0
S_out1_3_4_r3 1
S_out1_0_5_r3 0
S_out1_1_5_r3 0
S_out1_2_5_r3 0
S_out1_3_5_r3 0
S_out1_0_6_r3 0
S_out1_1_6_r3 0
S_out1_2_6_r3 0
S_out1_3_6_r3 0
S_out1_0_7_r3 0
S_out1_1_7_r3 0
S_out1_2_7_r3 0
S_out1_3_7_r3 0
R_0_0_r4 0
R_0_1_r4 0
R_0_2_r4 0
R_0_3_r4 0
R_0_4_r4 0
R_0_5_r4 0
R_0_6_r4 0
R_0_7_r4 0
R_1_0_r4 0
R_1_1_r4 0
R_1_2_r4 0
R_1_3_r4 0
R_1_4_r4 0
R_1_5_r4 0
R_1_6_r4 0
R_1_7_r4 0
R_2_0_r4 0
R_2_1_r4 0
R_2_2_r4 0
R_2_3_r4 0
R_2_4_r4 0
R_2_5_r4 0
R_2_6_r4 0
R_2_7_r4 0
R_3_0_r4 0
R_3_1_r4 0
R_3_2_r4 0
R_3_3_r4 0
R_3_4_r4 1
R_3_5_r4 0
R_3_6_r4 0
R_3_7_r4 0
S_out2_0_0_r3 0
S_out2_1_0_r3 0
S_out2_2_0_r3 0
S_out2_3_0_r3 0
S_out2_0_1_r3 0
S_out2_1_1_r3 0
S_out2_2_1_r3 0
S_out2_3_1_r3 0
S_out2_0_2_r3 0
S_out2_1_2_r3 0
S_out2_2_2_r3 0
S_out2_3_2_r3 0
S_out2_0_3_r3 0
S_out2_1_3_r3 1
S_out2_2_3_r3 0
S_out2_3_3_r3 1
S_out2_0_4_r3 0
S_out2_1_4_r3 0
S_out2_2_4_r3 0
S_out2_3_4_r3 0
S_out2_0_5_r3 0
S_out2_1_5_r3 0
S_out2_2_5_r3 0
S_out2_3_5_r3 0
S_out2_0_6_r3 0
S_out2_1_6_r3 0
S_out2_2_6_r3 0
S_out2_3_6_r3 0
S_out2_0_7_r3 0
S_out2_1_7_r3 0
S_out2_2_7_r3 0
S_out2_3_7_r3 0
L_0_0_r4 0
L_0_1_r4 0
L_0_2_r4 0
L_0_3_r4 1
L_0_4_r4 1
L_0_5_r4 0
L_0_6_r4 0
L_0_7_r4 0
L_1_0_r4 0
L_1_1_r4 0
L_1_2_r4 0
L_1_3_r4 0
L_1_4_r4 0
L_1_5_r4 0
L_1_6_r4 0
L_1_7_r4 0
L_2_0_r4 0
L_2_1_r4 0
L_2_2_r4 0
L_2_3_r4 0
L_2_4_r4 1
L_2_5_r4 0
L_2_6_r4 0
L_2_7_r4 0
L_3_0_r4 0
L_3_1_r4 0
L_3_2_r4 0
L_3_3_r4 1
L_3_4_r4 0
L_3_5_r4 0
L_3_6_r4 0
L_3_7_r4 0
